\ LP format - for model browsing. Use MPS format to capture full model detail.
Minimize
  - 4 x0 + 2 x1
Subject To
 constr(0): 4 x0 + 5 x1 <= 2
 constr(1): - x0 + 3 x1 <= 8
Bounds
 x0 <= 1
 x1 <= 4
End
